c Random CNF formula
p cnf 6 25
3 -1 6 0
-2 -3 6 0
-4 -6 -5 0
3 6 -4 0
1 -6 -4 0
-4 -1 6 0
3 -1 5 0
4 3 6 0
-5 2 1 0
1 -5 4 0
-3 1 5 0
-1 4 6 0
-6 -3 -1 0
2 1 5 0
3 1 -6 0
3 2 -4 0
-1 -5 3 0
6 -5 3 0
5 -4 -6 0
1 5 6 0
-4 1 -3 0
1 5 -3 0
4 5 -6 0
-3 6 1 0
-1 2 4 0
